c Reduced graph for DSJC125.5g generated by Cyril Grelier
p edge 125 3891
e 1 2
e 1 3
e 1 4
e 1 5
e 1 7
e 1 9
e 1 11
e 1 12
e 1 13
e 1 15
e 1 17
e 1 20
e 1 25
e 1 26
e 1 27
e 1 28
e 1 29
e 1 30
e 1 31
e 1 33
e 1 35
e 1 36
e 1 37
e 1 38
e 1 39
e 1 40
e 1 43
e 1 45
e 1 46
e 1 47
e 1 49
e 1 51
e 1 55
e 1 56
e 1 57
e 1 58
e 1 59
e 1 61
e 1 62
e 1 66
e 1 69
e 1 71
e 1 72
e 1 73
e 1 75
e 1 77
e 1 78
e 1 79
e 1 80
e 1 83
e 1 84
e 1 85
e 1 87
e 1 88
e 1 89
e 1 90
e 1 95
e 1 96
e 1 97
e 1 98
e 1 99
e 1 101
e 1 102
e 1 103
e 1 105
e 1 108
e 1 110
e 1 111
e 1 112
e 1 113
e 1 114
e 1 116
e 1 120
e 1 121
e 2 3
e 2 4
e 2 5
e 2 6
e 2 7
e 2 9
e 2 10
e 2 11
e 2 14
e 2 16
e 2 18
e 2 20
e 2 21
e 2 22
e 2 23
e 2 24
e 2 26
e 2 27
e 2 30
e 2 31
e 2 32
e 2 33
e 2 35
e 2 36
e 2 37
e 2 38
e 2 39
e 2 43
e 2 45
e 2 46
e 2 47
e 2 51
e 2 52
e 2 56
e 2 57
e 2 59
e 2 60
e 2 63
e 2 64
e 2 66
e 2 67
e 2 68
e 2 69
e 2 70
e 2 72
e 2 73
e 2 74
e 2 76
e 2 78
e 2 80
e 2 82
e 2 86
e 2 88
e 2 92
e 2 94
e 2 95
e 2 96
e 2 97
e 2 99
e 2 101
e 2 102
e 2 106
e 2 107
e 2 108
e 2 109
e 2 111
e 2 112
e 2 114
e 2 116
e 2 121
e 2 122
e 2 125
e 3 4
e 3 5
e 3 6
e 3 8
e 3 10
e 3 11
e 3 12
e 3 13
e 3 14
e 3 15
e 3 16
e 3 18
e 3 19
e 3 21
e 3 25
e 3 26
e 3 28
e 3 29
e 3 30
e 3 31
e 3 33
e 3 34
e 3 35
e 3 37
e 3 38
e 3 40
e 3 41
e 3 44
e 3 46
e 3 48
e 3 50
e 3 52
e 3 54
e 3 58
e 3 60
e 3 61
e 3 62
e 3 64
e 3 68
e 3 69
e 3 70
e 3 71
e 3 72
e 3 73
e 3 75
e 3 78
e 3 79
e 3 80
e 3 83
e 3 84
e 3 86
e 3 89
e 3 90
e 3 93
e 3 94
e 3 97
e 3 98
e 3 100
e 3 102
e 3 106
e 3 107
e 3 109
e 3 111
e 3 112
e 3 113
e 3 115
e 3 117
e 3 120
e 3 122
e 3 123
e 4 5
e 4 6
e 4 7
e 4 8
e 4 10
e 4 11
e 4 12
e 4 17
e 4 20
e 4 21
e 4 23
e 4 24
e 4 25
e 4 27
e 4 28
e 4 29
e 4 30
e 4 31
e 4 33
e 4 34
e 4 35
e 4 36
e 4 42
e 4 43
e 4 45
e 4 46
e 4 47
e 4 50
e 4 54
e 4 56
e 4 57
e 4 58
e 4 59
e 4 60
e 4 61
e 4 62
e 4 65
e 4 66
e 4 67
e 4 68
e 4 70
e 4 74
e 4 76
e 4 77
e 4 79
e 4 80
e 4 82
e 4 83
e 4 85
e 4 86
e 4 87
e 4 88
e 4 91
e 4 92
e 4 98
e 4 100
e 4 102
e 4 104
e 4 105
e 4 106
e 4 108
e 4 109
e 4 111
e 4 112
e 4 115
e 4 117
e 4 118
e 4 124
e 4 125
e 5 6
e 5 7
e 5 8
e 5 12
e 5 13
e 5 15
e 5 16
e 5 17
e 5 18
e 5 21
e 5 23
e 5 26
e 5 30
e 5 32
e 5 33
e 5 34
e 5 35
e 5 37
e 5 39
e 5 40
e 5 41
e 5 42
e 5 43
e 5 44
e 5 45
e 5 49
e 5 50
e 5 51
e 5 52
e 5 55
e 5 58
e 5 60
e 5 64
e 5 66
e 5 67
e 5 70
e 5 72
e 5 74
e 5 75
e 5 76
e 5 78
e 5 79
e 5 83
e 5 85
e 5 86
e 5 87
e 5 91
e 5 92
e 5 94
e 5 95
e 5 96
e 5 98
e 5 99
e 5 100
e 5 104
e 5 107
e 5 111
e 5 113
e 5 116
e 5 118
e 5 119
e 5 120
e 5 122
e 5 125
e 6 7
e 6 8
e 6 9
e 6 10
e 6 11
e 6 12
e 6 13
e 6 14
e 6 16
e 6 19
e 6 20
e 6 21
e 6 22
e 6 23
e 6 24
e 6 27
e 6 28
e 6 29
e 6 34
e 6 37
e 6 38
e 6 39
e 6 40
e 6 41
e 6 43
e 6 44
e 6 50
e 6 51
e 6 52
e 6 53
e 6 54
e 6 56
e 6 60
e 6 61
e 6 64
e 6 65
e 6 66
e 6 69
e 6 71
e 6 74
e 6 75
e 6 76
e 6 78
e 6 81
e 6 82
e 6 85
e 6 87
e 6 88
e 6 93
e 6 98
e 6 99
e 6 100
e 6 106
e 6 109
e 6 111
e 6 112
e 6 114
e 6 115
e 6 117
e 6 121
e 6 122
e 6 124
e 6 125
e 7 9
e 7 12
e 7 13
e 7 14
e 7 15
e 7 16
e 7 17
e 7 18
e 7 21
e 7 22
e 7 23
e 7 26
e 7 27
e 7 29
e 7 30
e 7 31
e 7 32
e 7 33
e 7 34
e 7 35
e 7 36
e 7 39
e 7 40
e 7 43
e 7 44
e 7 46
e 7 47
e 7 48
e 7 50
e 7 59
e 7 61
e 7 66
e 7 69
e 7 70
e 7 73
e 7 74
e 7 76
e 7 78
e 7 79
e 7 80
e 7 83
e 7 85
e 7 86
e 7 87
e 7 89
e 7 91
e 7 93
e 7 96
e 7 98
e 7 99
e 7 101
e 7 104
e 7 105
e 7 110
e 7 112
e 7 113
e 7 114
e 7 115
e 7 117
e 7 118
e 7 122
e 7 125
e 8 11
e 8 13
e 8 15
e 8 16
e 8 18
e 8 19
e 8 20
e 8 29
e 8 30
e 8 33
e 8 36
e 8 38
e 8 39
e 8 40
e 8 41
e 8 43
e 8 45
e 8 49
e 8 50
e 8 51
e 8 53
e 8 55
e 8 56
e 8 57
e 8 59
e 8 60
e 8 61
e 8 62
e 8 63
e 8 64
e 8 65
e 8 66
e 8 68
e 8 69
e 8 70
e 8 71
e 8 73
e 8 78
e 8 79
e 8 81
e 8 86
e 8 87
e 8 88
e 8 94
e 8 95
e 8 97
e 8 98
e 8 99
e 8 100
e 8 101
e 8 103
e 8 104
e 8 109
e 8 110
e 8 111
e 8 115
e 8 116
e 8 117
e 8 118
e 8 121
e 8 123
e 8 124
e 8 125
e 9 10
e 9 11
e 9 13
e 9 19
e 9 20
e 9 27
e 9 28
e 9 29
e 9 30
e 9 31
e 9 32
e 9 35
e 9 36
e 9 37
e 9 38
e 9 40
e 9 41
e 9 42
e 9 43
e 9 47
e 9 48
e 9 50
e 9 52
e 9 56
e 9 61
e 9 64
e 9 67
e 9 68
e 9 69
e 9 72
e 9 73
e 9 75
e 9 76
e 9 79
e 9 81
e 9 83
e 9 84
e 9 85
e 9 86
e 9 88
e 9 89
e 9 90
e 9 91
e 9 98
e 9 100
e 9 101
e 9 102
e 9 104
e 9 105
e 9 106
e 9 107
e 9 108
e 9 109
e 9 110
e 9 111
e 9 112
e 9 114
e 9 116
e 9 117
e 9 119
e 9 120
e 9 122
e 9 124
e 10 15
e 10 16
e 10 18
e 10 19
e 10 20
e 10 21
e 10 24
e 10 25
e 10 26
e 10 29
e 10 30
e 10 31
e 10 32
e 10 33
e 10 35
e 10 37
e 10 39
e 10 44
e 10 46
e 10 50
e 10 51
e 10 54
e 10 56
e 10 58
e 10 59
e 10 60
e 10 61
e 10 63
e 10 65
e 10 67
e 10 68
e 10 70
e 10 74
e 10 75
e 10 77
e 10 78
e 10 79
e 10 80
e 10 87
e 10 91
e 10 92
e 10 93
e 10 94
e 10 96
e 10 97
e 10 98
e 10 100
e 10 101
e 10 102
e 10 103
e 10 105
e 10 106
e 10 107
e 10 108
e 10 109
e 10 111
e 10 114
e 10 116
e 10 117
e 10 118
e 10 123
e 11 16
e 11 17
e 11 18
e 11 19
e 11 20
e 11 23
e 11 28
e 11 30
e 11 32
e 11 33
e 11 34
e 11 35
e 11 37
e 11 38
e 11 39
e 11 40
e 11 41
e 11 42
e 11 43
e 11 44
e 11 47
e 11 48
e 11 49
e 11 50
e 11 56
e 11 57
e 11 58
e 11 60
e 11 61
e 11 63
e 11 64
e 11 72
e 11 79
e 11 80
e 11 81
e 11 82
e 11 84
e 11 85
e 11 86
e 11 93
e 11 94
e 11 95
e 11 98
e 11 99
e 11 102
e 11 103
e 11 104
e 11 105
e 11 107
e 11 108
e 11 109
e 11 110
e 11 113
e 11 115
e 11 116
e 11 119
e 11 124
e 11 125
e 12 13
e 12 14
e 12 15
e 12 16
e 12 17
e 12 19
e 12 21
e 12 23
e 12 24
e 12 25
e 12 34
e 12 35
e 12 37
e 12 39
e 12 40
e 12 41
e 12 43
e 12 44
e 12 45
e 12 47
e 12 50
e 12 51
e 12 52
e 12 55
e 12 56
e 12 57
e 12 58
e 12 59
e 12 60
e 12 61
e 12 62
e 12 64
e 12 66
e 12 67
e 12 68
e 12 69
e 12 72
e 12 75
e 12 78
e 12 79
e 12 83
e 12 84
e 12 90
e 12 93
e 12 94
e 12 97
e 12 98
e 12 101
e 12 103
e 12 105
e 12 110
e 12 112
e 12 113
e 12 115
e 12 116
e 12 120
e 12 121
e 12 122
e 13 14
e 13 15
e 13 16
e 13 17
e 13 18
e 13 19
e 13 20
e 13 25
e 13 26
e 13 28
e 13 30
e 13 35
e 13 38
e 13 41
e 13 42
e 13 43
e 13 45
e 13 49
e 13 51
e 13 54
e 13 57
e 13 58
e 13 59
e 13 60
e 13 63
e 13 65
e 13 67
e 13 68
e 13 70
e 13 71
e 13 72
e 13 74
e 13 75
e 13 76
e 13 78
e 13 80
e 13 81
e 13 87
e 13 88
e 13 90
e 13 93
e 13 97
e 13 100
e 13 102
e 13 103
e 13 104
e 13 105
e 13 106
e 13 108
e 13 109
e 13 110
e 13 111
e 13 112
e 13 113
e 13 115
e 13 118
e 14 17
e 14 18
e 14 20
e 14 21
e 14 25
e 14 27
e 14 29
e 14 31
e 14 33
e 14 36
e 14 38
e 14 42
e 14 43
e 14 48
e 14 50
e 14 51
e 14 54
e 14 55
e 14 56
e 14 57
e 14 59
e 14 60
e 14 63
e 14 64
e 14 65
e 14 67
e 14 68
e 14 70
e 14 71
e 14 72
e 14 73
e 14 75
e 14 77
e 14 78
e 14 79
e 14 82
e 14 84
e 14 86
e 14 90
e 14 91
e 14 93
e 14 96
e 14 97
e 14 98
e 14 99
e 14 100
e 14 101
e 14 102
e 14 105
e 14 106
e 14 111
e 14 112
e 14 114
e 14 115
e 14 117
e 14 120
e 14 121
e 14 122
e 15 17
e 15 18
e 15 19
e 15 20
e 15 21
e 15 22
e 15 23
e 15 25
e 15 26
e 15 30
e 15 33
e 15 34
e 15 35
e 15 36
e 15 37
e 15 38
e 15 40
e 15 44
e 15 49
e 15 50
e 15 51
e 15 54
e 15 59
e 15 61
e 15 62
e 15 63
e 15 64
e 15 65
e 15 66
e 15 71
e 15 75
e 15 76
e 15 77
e 15 79
e 15 81
e 15 82
e 15 83
e 15 84
e 15 85
e 15 87
e 15 89
e 15 94
e 15 97
e 15 98
e 15 100
e 15 103
e 15 107
e 15 109
e 15 111
e 15 113
e 15 116
e 15 121
e 15 123
e 15 124
e 15 125
e 16 21
e 16 22
e 16 23
e 16 24
e 16 25
e 16 26
e 16 29
e 16 31
e 16 33
e 16 34
e 16 35
e 16 41
e 16 43
e 16 44
e 16 45
e 16 52
e 16 55
e 16 57
e 16 58
e 16 59
e 16 62
e 16 65
e 16 66
e 16 69
e 16 71
e 16 72
e 16 74
e 16 75
e 16 76
e 16 77
e 16 80
e 16 84
e 16 85
e 16 86
e 16 88
e 16 89
e 16 90
e 16 92
e 16 96
e 16 97
e 16 98
e 16 99
e 16 100
e 16 101
e 16 102
e 16 104
e 16 105
e 16 109
e 16 110
e 16 112
e 16 113
e 16 115
e 16 124
e 17 21
e 17 22
e 17 23
e 17 24
e 17 25
e 17 27
e 17 28
e 17 31
e 17 32
e 17 33
e 17 34
e 17 39
e 17 43
e 17 44
e 17 46
e 17 49
e 17 50
e 17 52
e 17 56
e 17 58
e 17 59
e 17 60
e 17 62
e 17 65
e 17 66
e 17 72
e 17 75
e 17 76
e 17 79
e 17 80
e 17 83
e 17 84
e 17 87
e 17 89
e 17 90
e 17 92
e 17 93
e 17 94
e 17 95
e 17 96
e 17 98
e 17 99
e 17 101
e 17 102
e 17 103
e 17 104
e 17 106
e 17 109
e 17 113
e 17 117
e 17 118
e 17 120
e 17 124
e 17 125
e 18 20
e 18 22
e 18 24
e 18 27
e 18 29
e 18 31
e 18 32
e 18 34
e 18 35
e 18 36
e 18 37
e 18 38
e 18 39
e 18 45
e 18 46
e 18 47
e 18 48
e 18 51
e 18 53
e 18 56
e 18 57
e 18 58
e 18 61
e 18 64
e 18 68
e 18 70
e 18 71
e 18 76
e 18 80
e 18 82
e 18 83
e 18 84
e 18 85
e 18 86
e 18 90
e 18 94
e 18 97
e 18 98
e 18 100
e 18 103
e 18 105
e 18 106
e 18 107
e 18 109
e 18 113
e 18 115
e 18 116
e 18 117
e 18 119
e 18 120
e 18 121
e 18 123
e 18 124
e 19 21
e 19 22
e 19 24
e 19 25
e 19 26
e 19 27
e 19 28
e 19 29
e 19 30
e 19 31
e 19 32
e 19 33
e 19 37
e 19 38
e 19 41
e 19 43
e 19 44
e 19 45
e 19 49
e 19 50
e 19 52
e 19 54
e 19 55
e 19 60
e 19 65
e 19 66
e 19 69
e 19 70
e 19 72
e 19 74
e 19 78
e 19 79
e 19 81
e 19 84
e 19 85
e 19 87
e 19 88
e 19 90
e 19 91
e 19 97
e 19 103
e 19 104
e 19 105
e 19 106
e 19 107
e 19 109
e 19 110
e 19 111
e 19 113
e 19 118
e 19 119
e 19 120
e 19 123
e 20 26
e 20 27
e 20 29
e 20 33
e 20 34
e 20 35
e 20 39
e 20 42
e 20 43
e 20 44
e 20 54
e 20 55
e 20 56
e 20 57
e 20 58
e 20 60
e 20 61
e 20 62
e 20 63
e 20 64
e 20 66
e 20 67
e 20 68
e 20 69
e 20 73
e 20 76
e 20 77
e 20 78
e 20 79
e 20 81
e 20 82
e 20 84
e 20 85
e 20 89
e 20 90
e 20 91
e 20 93
e 20 98
e 20 102
e 20 103
e 20 104
e 20 107
e 20 110
e 20 113
e 20 114
e 20 119
e 20 122
e 20 124
e 20 125
e 21 23
e 21 28
e 21 31
e 21 32
e 21 37
e 21 38
e 21 39
e 21 45
e 21 46
e 21 47
e 21 50
e 21 53
e 21 54
e 21 55
e 21 56
e 21 59
e 21 61
e 21 62
e 21 65
e 21 66
e 21 67
e 21 70
e 21 71
e 21 72
e 21 73
e 21 74
e 21 75
e 21 77
e 21 78
e 21 82
e 21 83
e 21 84
e 21 87
e 21 89
e 21 91
e 21 92
e 21 94
e 21 96
e 21 98
e 21 99
e 21 100
e 21 104
e 21 108
e 21 111
e 21 113
e 21 114
e 21 120
e 22 24
e 22 28
e 22 31
e 22 33
e 22 34
e 22 36
e 22 38
e 22 40
e 22 41
e 22 43
e 22 44
e 22 47
e 22 50
e 22 51
e 22 52
e 22 53
e 22 56
e 22 59
e 22 61
e 22 62
e 22 65
e 22 66
e 22 67
e 22 69
e 22 72
e 22 74
e 22 77
e 22 78
e 22 81
e 22 82
e 22 86
e 22 88
e 22 90
e 22 91
e 22 92
e 22 94
e 22 97
e 22 98
e 22 101
e 22 103
e 22 108
e 22 109
e 22 110
e 22 111
e 22 113
e 22 115
e 22 116
e 22 118
e 22 122
e 22 123
e 22 125
e 23 24
e 23 25
e 23 29
e 23 30
e 23 32
e 23 34
e 23 35
e 23 37
e 23 43
e 23 44
e 23 45
e 23 46
e 23 48
e 23 55
e 23 57
e 23 58
e 23 59
e 23 61
e 23 62
e 23 68
e 23 69
e 23 70
e 23 73
e 23 74
e 23 75
e 23 77
e 23 79
e 23 83
e 23 85
e 23 88
e 23 90
e 23 92
e 23 93
e 23 96
e 23 97
e 23 100
e 23 101
e 23 102
e 23 103
e 23 104
e 23 106
e 23 107
e 23 112
e 23 116
e 23 118
e 23 120
e 24 28
e 24 29
e 24 33
e 24 36
e 24 37
e 24 39
e 24 40
e 24 41
e 24 42
e 24 45
e 24 47
e 24 49
e 24 50
e 24 53
e 24 57
e 24 58
e 24 59
e 24 60
e 24 73
e 24 76
e 24 80
e 24 81
e 24 83
e 24 84
e 24 85
e 24 86
e 24 87
e 24 88
e 24 90
e 24 91
e 24 98
e 24 99
e 24 100
e 24 101
e 24 102
e 24 104
e 24 107
e 24 108
e 24 111
e 24 113
e 24 114
e 24 116
e 24 120
e 24 121
e 24 124
e 25 27
e 25 29
e 25 30
e 25 31
e 25 34
e 25 36
e 25 37
e 25 39
e 25 40
e 25 41
e 25 43
e 25 50
e 25 56
e 25 58
e 25 59
e 25 60
e 25 63
e 25 65
e 25 68
e 25 69
e 25 71
e 25 74
e 25 76
e 25 78
e 25 79
e 25 81
e 25 83
e 25 84
e 25 88
e 25 95
e 25 96
e 25 97
e 25 98
e 25 99
e 25 100
e 25 101
e 25 102
e 25 106
e 25 109
e 25 111
e 25 112
e 25 114
e 25 123
e 26 30
e 26 35
e 26 42
e 26 43
e 26 46
e 26 47
e 26 48
e 26 49
e 26 53
e 26 54
e 26 55
e 26 58
e 26 62
e 26 66
e 26 68
e 26 71
e 26 72
e 26 73
e 26 76
e 26 77
e 26 78
e 26 81
e 26 82
e 26 84
e 26 87
e 26 89
e 26 93
e 26 94
e 26 95
e 26 97
e 26 98
e 26 100
e 26 104
e 26 105
e 26 106
e 26 107
e 26 108
e 26 110
e 26 114
e 26 115
e 26 118
e 26 120
e 26 124
e 27 28
e 27 29
e 27 30
e 27 31
e 27 32
e 27 36
e 27 44
e 27 49
e 27 51
e 27 55
e 27 56
e 27 58
e 27 59
e 27 60
e 27 67
e 27 68
e 27 72
e 27 76
e 27 78
e 27 79
e 27 81
e 27 83
e 27 84
e 27 86
e 27 87
e 27 88
e 27 90
e 27 91
e 27 98
e 27 99
e 27 100
e 27 101
e 27 102
e 27 103
e 27 105
e 27 107
e 27 108
e 27 116
e 27 120
e 27 121
e 27 125
e 28 31
e 28 32
e 28 33
e 28 34
e 28 35
e 28 36
e 28 40
e 28 45
e 28 46
e 28 47
e 28 48
e 28 52
e 28 55
e 28 56
e 28 57
e 28 58
e 28 59
e 28 60
e 28 61
e 28 62
e 28 64
e 28 65
e 28 66
e 28 68
e 28 69
e 28 71
e 28 72
e 28 73
e 28 74
e 28 76
e 28 78
e 28 79
e 28 81
e 28 83
e 28 85
e 28 87
e 28 88
e 28 89
e 28 90
e 28 91
e 28 93
e 28 96
e 28 99
e 28 100
e 28 103
e 28 104
e 28 105
e 28 106
e 28 108
e 28 110
e 28 113
e 28 115
e 28 117
e 28 118
e 28 119
e 28 121
e 28 122
e 28 123
e 28 124
e 28 125
e 29 30
e 29 31
e 29 32
e 29 34
e 29 36
e 29 37
e 29 38
e 29 39
e 29 40
e 29 41
e 29 45
e 29 46
e 29 47
e 29 48
e 29 52
e 29 53
e 29 54
e 29 55
e 29 57
e 29 60
e 29 61
e 29 62
e 29 63
e 29 65
e 29 68
e 29 69
e 29 71
e 29 74
e 29 76
e 29 80
e 29 81
e 29 82
e 29 85
e 29 89
e 29 91
e 29 92
e 29 94
e 29 95
e 29 100
e 29 102
e 29 103
e 29 104
e 29 105
e 29 106
e 29 107
e 29 108
e 29 112
e 29 114
e 29 115
e 29 118
e 29 119
e 29 121
e 29 123
e 29 125
e 30 31
e 30 32
e 30 33
e 30 35
e 30 36
e 30 37
e 30 38
e 30 39
e 30 40
e 30 42
e 30 43
e 30 47
e 30 48
e 30 49
e 30 50
e 30 55
e 30 57
e 30 59
e 30 61
e 30 64
e 30 65
e 30 68
e 30 69
e 30 70
e 30 72
e 30 77
e 30 79
e 30 80
e 30 81
e 30 82
e 30 86
e 30 87
e 30 91
e 30 92
e 30 93
e 30 97
e 30 99
e 30 101
e 30 103
e 30 104
e 30 105
e 30 109
e 30 110
e 30 112
e 30 113
e 30 114
e 30 118
e 30 121
e 30 122
e 30 123
e 30 124
e 31 32
e 31 36
e 31 42
e 31 46
e 31 48
e 31 49
e 31 50
e 31 52
e 31 53
e 31 54
e 31 55
e 31 56
e 31 57
e 31 58
e 31 60
e 31 61
e 31 62
e 31 65
e 31 66
e 31 67
e 31 68
e 31 70
e 31 72
e 31 73
e 31 74
e 31 77
e 31 78
e 31 79
e 31 80
e 31 81
e 31 83
e 31 85
e 31 86
e 31 88
e 31 91
e 31 96
e 31 98
e 31 100
e 31 102
e 31 103
e 31 104
e 31 106
e 31 107
e 31 108
e 31 109
e 31 114
e 31 115
e 31 119
e 31 123
e 31 124
e 32 33
e 32 34
e 32 35
e 32 39
e 32 40
e 32 42
e 32 43
e 32 44
e 32 49
e 32 51
e 32 52
e 32 53
e 32 54
e 32 55
e 32 56
e 32 58
e 32 59
e 32 63
e 32 64
e 32 67
e 32 68
e 32 71
e 32 72
e 32 74
e 32 76
e 32 77
e 32 78
e 32 79
e 32 81
e 32 84
e 32 85
e 32 88
e 32 89
e 32 91
e 32 93
e 32 95
e 32 96
e 32 97
e 32 99
e 32 100
e 32 102
e 32 104
e 32 105
e 32 108
e 32 109
e 32 110
e 32 113
e 32 114
e 32 115
e 32 120
e 32 121
e 32 122
e 32 124
e 33 34
e 33 35
e 33 37
e 33 38
e 33 39
e 33 40
e 33 42
e 33 44
e 33 45
e 33 46
e 33 47
e 33 48
e 33 51
e 33 53
e 33 54
e 33 55
e 33 56
e 33 57
e 33 58
e 33 59
e 33 61
e 33 62
e 33 65
e 33 67
e 33 74
e 33 75
e 33 79
e 33 82
e 33 84
e 33 86
e 33 89
e 33 90
e 33 91
e 33 92
e 33 93
e 33 94
e 33 98
e 33 101
e 33 103
e 33 104
e 33 105
e 33 106
e 33 107
e 33 113
e 33 118
e 33 119
e 33 122
e 33 123
e 34 35
e 34 38
e 34 39
e 34 42
e 34 44
e 34 45
e 34 47
e 34 48
e 34 51
e 34 52
e 34 53
e 34 54
e 34 58
e 34 61
e 34 63
e 34 64
e 34 65
e 34 68
e 34 70
e 34 72
e 34 75
e 34 76
e 34 77
e 34 79
e 34 83
e 34 89
e 34 92
e 34 94
e 34 95
e 34 96
e 34 97
e 34 98
e 34 99
e 34 100
e 34 101
e 34 102
e 34 107
e 34 109
e 34 111
e 34 112
e 34 116
e 34 119
e 34 120
e 34 121
e 34 122
e 34 124
e 34 125
e 35 37
e 35 40
e 35 41
e 35 45
e 35 46
e 35 48
e 35 49
e 35 50
e 35 53
e 35 56
e 35 57
e 35 61
e 35 63
e 35 64
e 35 65
e 35 66
e 35 68
e 35 69
e 35 74
e 35 77
e 35 79
e 35 84
e 35 86
e 35 90
e 35 93
e 35 96
e 35 97
e 35 98
e 35 99
e 35 100
e 35 101
e 35 102
e 35 104
e 35 106
e 35 108
e 35 111
e 35 112
e 35 113
e 35 115
e 35 116
e 35 117
e 35 118
e 35 120
e 36 38
e 36 39
e 36 46
e 36 47
e 36 48
e 36 49
e 36 51
e 36 53
e 36 57
e 36 59
e 36 61
e 36 62
e 36 65
e 36 67
e 36 68
e 36 69
e 36 70
e 36 76
e 36 77
e 36 80
e 36 81
e 36 82
e 36 83
e 36 84
e 36 86
e 36 87
e 36 88
e 36 89
e 36 90
e 36 91
e 36 93
e 36 96
e 36 99
e 36 100
e 36 101
e 36 102
e 36 105
e 36 106
e 36 107
e 36 108
e 36 109
e 36 112
e 36 113
e 36 117
e 36 118
e 36 119
e 36 120
e 36 124
e 37 39
e 37 41
e 37 44
e 37 45
e 37 46
e 37 47
e 37 48
e 37 52
e 37 54
e 37 60
e 37 62
e 37 63
e 37 66
e 37 67
e 37 69
e 37 73
e 37 74
e 37 75
e 37 76
e 37 77
e 37 79
e 37 84
e 37 86
e 37 87
e 37 94
e 37 95
e 37 97
e 37 98
e 37 99
e 37 100
e 37 101
e 37 102
e 37 103
e 37 106
e 37 109
e 37 110
e 37 113
e 37 116
e 37 117
e 37 120
e 37 121
e 37 122
e 37 123
e 37 124
e 38 41
e 38 42
e 38 43
e 38 45
e 38 49
e 38 51
e 38 55
e 38 57
e 38 58
e 38 59
e 38 61
e 38 62
e 38 67
e 38 68
e 38 70
e 38 71
e 38 72
e 38 73
e 38 75
e 38 76
e 38 78
e 38 80
e 38 85
e 38 88
e 38 89
e 38 90
e 38 91
e 38 94
e 38 95
e 38 97
e 38 98
e 38 99
e 38 100
e 38 102
e 38 104
e 38 107
e 38 108
e 38 110
e 38 112
e 38 115
e 38 116
e 38 118
e 38 119
e 39 42
e 39 47
e 39 48
e 39 49
e 39 53
e 39 55
e 39 57
e 39 65
e 39 66
e 39 67
e 39 71
e 39 72
e 39 73
e 39 80
e 39 81
e 39 82
e 39 83
e 39 84
e 39 86
e 39 88
e 39 92
e 39 93
e 39 95
e 39 96
e 39 97
e 39 98
e 39 99
e 39 100
e 39 103
e 39 104
e 39 105
e 39 109
e 39 113
e 39 114
e 39 115
e 39 118
e 39 119
e 39 121
e 39 123
e 39 124
e 40 41
e 40 44
e 40 47
e 40 49
e 40 51
e 40 53
e 40 55
e 40 57
e 40 58
e 40 62
e 40 63
e 40 64
e 40 65
e 40 68
e 40 69
e 40 70
e 40 72
e 40 73
e 40 76
e 40 77
e 40 78
e 40 81
e 40 82
e 40 83
e 40 85
e 40 87
e 40 93
e 40 94
e 40 98
e 40 99
e 40 100
e 40 102
e 40 106
e 40 108
e 40 109
e 40 111
e 40 114
e 40 115
e 40 116
e 40 120
e 40 124
e 40 125
e 41 42
e 41 48
e 41 50
e 41 52
e 41 53
e 41 54
e 41 56
e 41 58
e 41 60
e 41 62
e 41 63
e 41 64
e 41 67
e 41 68
e 41 70
e 41 72
e 41 73
e 41 74
e 41 77
e 41 80
e 41 82
e 41 85
e 41 86
e 41 89
e 41 90
e 41 91
e 41 94
e 41 95
e 41 96
e 41 97
e 41 98
e 41 101
e 41 102
e 41 103
e 41 106
e 41 108
e 41 111
e 41 112
e 41 116
e 41 117
e 41 119
e 41 124
e 41 125
e 42 45
e 42 47
e 42 50
e 42 53
e 42 54
e 42 56
e 42 57
e 42 58
e 42 59
e 42 61
e 42 62
e 42 65
e 42 66
e 42 67
e 42 68
e 42 69
e 42 71
e 42 72
e 42 73
e 42 77
e 42 80
e 42 81
e 42 82
e 42 84
e 42 85
e 42 86
e 42 88
e 42 90
e 42 91
e 42 93
e 42 95
e 42 96
e 42 98
e 42 99
e 42 100
e 42 103
e 42 105
e 42 106
e 42 108
e 42 111
e 42 116
e 42 119
e 42 121
e 42 122
e 43 44
e 43 48
e 43 51
e 43 53
e 43 55
e 43 56
e 43 57
e 43 59
e 43 61
e 43 64
e 43 68
e 43 69
e 43 71
e 43 72
e 43 74
e 43 77
e 43 82
e 43 85
e 43 87
e 43 91
e 43 92
e 43 96
e 43 97
e 43 99
e 43 100
e 43 105
e 43 107
e 43 110
e 43 111
e 43 113
e 43 114
e 43 115
e 43 116
e 43 118
e 43 119
e 43 120
e 43 124
e 44 47
e 44 48
e 44 50
e 44 51
e 44 52
e 44 53
e 44 57
e 44 62
e 44 63
e 44 64
e 44 65
e 44 69
e 44 71
e 44 73
e 44 75
e 44 76
e 44 81
e 44 86
e 44 87
e 44 89
e 44 90
e 44 91
e 44 92
e 44 93
e 44 95
e 44 97
e 44 98
e 44 99
e 44 100
e 44 101
e 44 102
e 44 104
e 44 110
e 44 113
e 44 114
e 44 115
e 44 121
e 44 122
e 44 123
e 45 48
e 45 51
e 45 52
e 45 53
e 45 54
e 45 56
e 45 57
e 45 62
e 45 63
e 45 64
e 45 66
e 45 67
e 45 68
e 45 70
e 45 71
e 45 72
e 45 77
e 45 80
e 45 82
e 45 83
e 45 87
e 45 90
e 45 92
e 45 93
e 45 95
e 45 97
e 45 98
e 45 100
e 45 102
e 45 105
e 45 108
e 45 110
e 45 111
e 45 114
e 45 115
e 45 118
e 45 119
e 45 123
e 45 125
e 46 47
e 46 48
e 46 52
e 46 53
e 46 54
e 46 56
e 46 57
e 46 58
e 46 60
e 46 62
e 46 63
e 46 64
e 46 65
e 46 68
e 46 69
e 46 72
e 46 75
e 46 77
e 46 78
e 46 82
e 46 86
e 46 90
e 46 91
e 46 92
e 46 93
e 46 100
e 46 101
e 46 102
e 46 105
e 46 106
e 46 107
e 46 108
e 46 110
e 46 111
e 46 114
e 46 115
e 46 116
e 46 117
e 46 120
e 46 121
e 46 122
e 46 125
e 47 48
e 47 49
e 47 53
e 47 56
e 47 59
e 47 60
e 47 62
e 47 65
e 47 68
e 47 69
e 47 75
e 47 76
e 47 82
e 47 83
e 47 84
e 47 85
e 47 88
e 47 91
e 47 92
e 47 96
e 47 97
e 47 99
e 47 100
e 47 102
e 47 103
e 47 104
e 47 105
e 47 108
e 47 112
e 47 114
e 47 115
e 47 119
e 47 120
e 47 124
e 48 49
e 48 52
e 48 56
e 48 58
e 48 59
e 48 64
e 48 65
e 48 66
e 48 67
e 48 68
e 48 69
e 48 76
e 48 77
e 48 78
e 48 80
e 48 82
e 48 84
e 48 86
e 48 89
e 48 90
e 48 91
e 48 93
e 48 97
e 48 99
e 48 101
e 48 105
e 48 106
e 48 107
e 48 108
e 48 109
e 48 111
e 48 114
e 48 116
e 48 119
e 49 50
e 49 51
e 49 58
e 49 61
e 49 67
e 49 72
e 49 73
e 49 75
e 49 77
e 49 78
e 49 79
e 49 80
e 49 81
e 49 82
e 49 83
e 49 85
e 49 87
e 49 88
e 49 89
e 49 92
e 49 94
e 49 96
e 49 98
e 49 100
e 49 101
e 49 102
e 49 105
e 49 107
e 49 108
e 49 112
e 49 114
e 49 115
e 49 116
e 49 117
e 49 118
e 49 121
e 49 122
e 50 52
e 50 53
e 50 54
e 50 56
e 50 57
e 50 58
e 50 59
e 50 66
e 50 67
e 50 70
e 50 72
e 50 74
e 50 76
e 50 81
e 50 82
e 50 84
e 50 86
e 50 87
e 50 96
e 50 99
e 50 101
e 50 103
e 50 104
e 50 105
e 50 110
e 50 114
e 50 115
e 50 116
e 50 117
e 50 122
e 50 124
e 51 52
e 51 53
e 51 55
e 51 59
e 51 60
e 51 61
e 51 62
e 51 64
e 51 67
e 51 71
e 51 72
e 51 75
e 51 76
e 51 77
e 51 79
e 51 82
e 51 85
e 51 88
e 51 89
e 51 90
e 51 91
e 51 97
e 51 98
e 51 101
e 51 102
e 51 107
e 51 110
e 51 111
e 51 112
e 51 116
e 51 117
e 51 120
e 51 125
e 52 53
e 52 54
e 52 55
e 52 62
e 52 64
e 52 65
e 52 67
e 52 69
e 52 75
e 52 77
e 52 79
e 52 80
e 52 81
e 52 82
e 52 84
e 52 90
e 52 92
e 52 93
e 52 99
e 52 100
e 52 101
e 52 102
e 52 104
e 52 105
e 52 107
e 52 108
e 52 114
e 52 115
e 52 116
e 52 120
e 52 122
e 52 123
e 52 125
e 53 55
e 53 57
e 53 58
e 53 59
e 53 60
e 53 61
e 53 64
e 53 69
e 53 71
e 53 72
e 53 73
e 53 74
e 53 77
e 53 79
e 53 82
e 53 84
e 53 86
e 53 89
e 53 92
e 53 94
e 53 98
e 53 105
e 53 106
e 53 108
e 53 111
e 53 119
e 53 121
e 53 123
e 53 125
e 54 55
e 54 56
e 54 58
e 54 60
e 54 63
e 54 64
e 54 65
e 54 69
e 54 70
e 54 71
e 54 72
e 54 76
e 54 81
e 54 83
e 54 90
e 54 91
e 54 93
e 54 94
e 54 96
e 54 97
e 54 99
e 54 100
e 54 101
e 54 102
e 54 105
e 54 106
e 54 108
e 54 110
e 54 112
e 54 114
e 54 115
e 54 124
e 55 56
e 55 60
e 55 62
e 55 68
e 55 69
e 55 71
e 55 73
e 55 74
e 55 79
e 55 80
e 55 81
e 55 83
e 55 97
e 55 100
e 55 103
e 55 104
e 55 105
e 55 106
e 55 108
e 55 109
e 55 110
e 55 112
e 55 117
e 55 121
e 55 122
e 56 57
e 56 58
e 56 59
e 56 61
e 56 62
e 56 63
e 56 66
e 56 67
e 56 69
e 56 70
e 56 74
e 56 75
e 56 76
e 56 77
e 56 79
e 56 80
e 56 82
e 56 86
e 56 87
e 56 88
e 56 89
e 56 90
e 56 92
e 56 93
e 56 95
e 56 97
e 56 98
e 56 99
e 56 102
e 56 103
e 56 106
e 56 108
e 56 109
e 56 110
e 56 111
e 56 112
e 56 115
e 56 117
e 56 122
e 56 123
e 56 125
e 57 58
e 57 59
e 57 60
e 57 61
e 57 62
e 57 63
e 57 64
e 57 66
e 57 69
e 57 71
e 57 72
e 57 74
e 57 75
e 57 76
e 57 77
e 57 83
e 57 87
e 57 89
e 57 90
e 57 92
e 57 94
e 57 95
e 57 97
e 57 98
e 57 99
e 57 101
e 57 104
e 57 105
e 57 109
e 57 110
e 57 111
e 57 114
e 57 115
e 57 116
e 57 117
e 57 119
e 57 120
e 57 121
e 57 123
e 58 59
e 58 60
e 58 61
e 58 63
e 58 64
e 58 66
e 58 67
e 58 69
e 58 74
e 58 75
e 58 76
e 58 77
e 58 78
e 58 80
e 58 81
e 58 82
e 58 87
e 58 88
e 58 89
e 58 93
e 58 95
e 58 96
e 58 100
e 58 102
e 58 103
e 58 106
e 58 108
e 58 109
e 58 110
e 58 111
e 58 112
e 58 113
e 58 117
e 58 122
e 58 125
e 59 60
e 59 61
e 59 62
e 59 63
e 59 65
e 59 66
e 59 68
e 59 72
e 59 73
e 59 75
e 59 76
e 59 81
e 59 83
e 59 87
e 59 89
e 59 90
e 59 91
e 59 95
e 59 96
e 59 97
e 59 98
e 59 101
e 59 102
e 59 103
e 59 105
e 59 107
e 59 110
e 59 111
e 59 115
e 59 116
e 59 117
e 59 122
e 59 123
e 59 125
e 60 61
e 60 62
e 60 63
e 60 65
e 60 67
e 60 70
e 60 73
e 60 76
e 60 77
e 60 80
e 60 81
e 60 83
e 60 85
e 60 87
e 60 90
e 60 91
e 60 92
e 60 93
e 60 94
e 60 95
e 60 96
e 60 97
e 60 98
e 60 100
e 60 101
e 60 102
e 60 103
e 60 107
e 60 110
e 60 111
e 60 113
e 60 116
e 60 117
e 60 118
e 60 121
e 60 122
e 60 123
e 61 63
e 61 64
e 61 67
e 61 70
e 61 73
e 61 76
e 61 78
e 61 79
e 61 81
e 61 82
e 61 83
e 61 86
e 61 87
e 61 88
e 61 90
e 61 91
e 61 94
e 61 95
e 61 98
e 61 99
e 61 101
e 61 102
e 61 103
e 61 104
e 61 109
e 61 110
e 61 113
e 61 115
e 61 116
e 61 117
e 61 118
e 61 122
e 62 63
e 62 65
e 62 67
e 62 68
e 62 70
e 62 73
e 62 75
e 62 76
e 62 81
e 62 83
e 62 87
e 62 88
e 62 89
e 62 90
e 62 92
e 62 94
e 62 95
e 62 98
e 62 99
e 62 100
e 62 102
e 62 108
e 62 111
e 62 112
e 62 113
e 62 114
e 62 115
e 62 116
e 62 117
e 62 119
e 62 121
e 62 122
e 62 123
e 63 64
e 63 65
e 63 68
e 63 70
e 63 72
e 63 73
e 63 76
e 63 77
e 63 78
e 63 79
e 63 80
e 63 81
e 63 85
e 63 86
e 63 89
e 63 90
e 63 92
e 63 93
e 63 94
e 63 98
e 63 99
e 63 100
e 63 101
e 63 103
e 63 105
e 63 106
e 63 108
e 63 111
e 63 112
e 63 113
e 63 114
e 63 115
e 63 116
e 63 117
e 63 119
e 63 120
e 63 121
e 63 123
e 63 124
e 63 125
e 64 66
e 64 70
e 64 71
e 64 73
e 64 74
e 64 75
e 64 77
e 64 80
e 64 82
e 64 83
e 64 84
e 64 88
e 64 89
e 64 90
e 64 91
e 64 97
e 64 99
e 64 100
e 64 101
e 64 102
e 64 103
e 64 104
e 64 107
e 64 108
e 64 109
e 64 112
e 64 113
e 64 114
e 64 117
e 64 119
e 64 120
e 64 122
e 64 123
e 64 125
e 65 68
e 65 69
e 65 72
e 65 73
e 65 74
e 65 78
e 65 79
e 65 81
e 65 84
e 65 85
e 65 87
e 65 89
e 65 92
e 65 93
e 65 94
e 65 95
e 65 97
e 65 98
e 65 101
e 65 102
e 65 104
e 65 105
e 65 108
e 65 109
e 65 111
e 65 118
e 65 121
e 65 122
e 65 123
e 65 124
e 66 68
e 66 69
e 66 70
e 66 71
e 66 73
e 66 74
e 66 75
e 66 76
e 66 77
e 66 78
e 66 81
e 66 82
e 66 86
e 66 91
e 66 93
e 66 94
e 66 97
e 66 99
e 66 100
e 66 101
e 66 103
e 66 104
e 66 105
e 66 108
e 66 109
e 66 111
e 66 112
e 66 113
e 66 117
e 66 119
e 66 120
e 66 121
e 66 123
e 66 125
e 67 68
e 67 70
e 67 76
e 67 77
e 67 78
e 67 80
e 67 81
e 67 82
e 67 85
e 67 89
e 67 91
e 67 92
e 67 97
e 67 98
e 67 99
e 67 100
e 67 102
e 67 103
e 67 105
e 67 107
e 67 109
e 67 110
e 67 111
e 67 114
e 67 116
e 67 118
e 67 120
e 67 122
e 67 124
e 68 70
e 68 78
e 68 79
e 68 80
e 68 85
e 68 86
e 68 88
e 68 89
e 68 90
e 68 94
e 68 95
e 68 97
e 68 102
e 68 103
e 68 106
e 68 107
e 68 112
e 68 115
e 68 118
e 68 119
e 68 120
e 69 70
e 69 72
e 69 76
e 69 77
e 69 82
e 69 83
e 69 88
e 69 89
e 69 95
e 69 97
e 69 99
e 69 106
e 69 108
e 69 109
e 69 110
e 69 111
e 69 112
e 69 114
e 69 118
e 69 119
e 69 121
e 69 124
e 69 125
e 70 73
e 70 74
e 70 75
e 70 79
e 70 80
e 70 84
e 70 86
e 70 87
e 70 92
e 70 94
e 70 95
e 70 97
e 70 99
e 70 100
e 70 101
e 70 102
e 70 103
e 70 104
e 70 105
e 70 109
e 70 111
e 70 112
e 70 113
e 70 115
e 70 117
e 70 124
e 71 74
e 71 75
e 71 78
e 71 79
e 71 80
e 71 82
e 71 83
e 71 85
e 71 87
e 71 89
e 71 91
e 71 92
e 71 93
e 71 95
e 71 97
e 71 101
e 71 102
e 71 103
e 71 105
e 71 106
e 71 107
e 71 108
e 71 110
e 71 111
e 71 113
e 71 115
e 71 116
e 71 118
e 71 121
e 71 125
e 72 75
e 72 80
e 72 81
e 72 82
e 72 83
e 72 85
e 72 88
e 72 90
e 72 93
e 72 94
e 72 107
e 72 109
e 72 110
e 72 112
e 72 113
e 72 118
e 72 119
e 72 123
e 73 76
e 73 78
e 73 80
e 73 83
e 73 84
e 73 85
e 73 86
e 73 89
e 73 92
e 73 95
e 73 97
e 73 101
e 73 103
e 73 108
e 73 109
e 73 110
e 73 111
e 73 112
e 73 118
e 73 121
e 73 122
e 73 123
e 73 125
e 74 77
e 74 78
e 74 84
e 74 85
e 74 87
e 74 88
e 74 101
e 74 102
e 74 103
e 74 104
e 74 105
e 74 107
e 74 109
e 74 111
e 74 112
e 74 114
e 74 116
e 74 118
e 74 119
e 74 120
e 74 122
e 74 123
e 74 124
e 75 77
e 75 80
e 75 84
e 75 88
e 75 90
e 75 93
e 75 95
e 75 96
e 75 97
e 75 99
e 75 100
e 75 101
e 75 102
e 75 103
e 75 105
e 75 106
e 75 107
e 75 115
e 75 117
e 75 120
e 76 77
e 76 79
e 76 80
e 76 81
e 76 82
e 76 83
e 76 84
e 76 85
e 76 86
e 76 87
e 76 89
e 76 92
e 76 94
e 76 97
e 76 101
e 76 104
e 76 105
e 76 106
e 76 109
e 76 111
e 76 113
e 76 115
e 76 117
e 76 121
e 76 122
e 76 124
e 77 79
e 77 81
e 77 84
e 77 86
e 77 87
e 77 88
e 77 89
e 77 91
e 77 92
e 77 95
e 77 96
e 77 100
e 77 103
e 77 107
e 77 108
e 77 109
e 77 110
e 77 112
e 77 113
e 77 114
e 77 116
e 77 117
e 77 119
e 77 125
e 78 79
e 78 80
e 78 81
e 78 82
e 78 83
e 78 86
e 78 87
e 78 92
e 78 93
e 78 95
e 78 96
e 78 97
e 78 100
e 78 101
e 78 103
e 78 107
e 78 109
e 78 110
e 78 111
e 78 112
e 78 113
e 78 115
e 78 116
e 78 117
e 78 118
e 78 119
e 78 123
e 78 124
e 78 125
e 79 82
e 79 83
e 79 85
e 79 88
e 79 89
e 79 92
e 79 94
e 79 98
e 79 99
e 79 100
e 79 104
e 79 106
e 79 107
e 79 109
e 79 110
e 79 112
e 79 114
e 79 117
e 79 120
e 79 121
e 79 122
e 79 123
e 79 125
e 80 81
e 80 83
e 80 85
e 80 86
e 80 87
e 80 92
e 80 94
e 80 95
e 80 96
e 80 98
e 80 99
e 80 101
e 80 102
e 80 105
e 80 106
e 80 108
e 80 109
e 80 110
e 80 117
e 80 118
e 80 119
e 80 120
e 80 121
e 80 122
e 80 124
e 81 82
e 81 83
e 81 93
e 81 96
e 81 101
e 81 104
e 81 105
e 81 106
e 81 108
e 81 109
e 81 111
e 81 112
e 81 115
e 81 116
e 81 117
e 81 118
e 81 119
e 81 121
e 81 122
e 81 125
e 82 83
e 82 86
e 82 87
e 82 90
e 82 91
e 82 92
e 82 95
e 82 96
e 82 97
e 82 98
e 82 99
e 82 101
e 82 102
e 82 103
e 82 111
e 82 113
e 82 114
e 82 122
e 82 124
e 83 84
e 83 87
e 83 90
e 83 91
e 83 93
e 83 94
e 83 96
e 83 97
e 83 104
e 83 109
e 83 110
e 83 111
e 83 112
e 83 116
e 83 117
e 83 119
e 83 122
e 83 123
e 83 125
e 84 86
e 84 89
e 84 92
e 84 93
e 84 97
e 84 99
e 84 100
e 84 101
e 84 102
e 84 103
e 84 104
e 84 105
e 84 106
e 84 107
e 84 108
e 84 110
e 84 113
e 84 115
e 84 116
e 84 118
e 84 119
e 84 122
e 84 123
e 85 86
e 85 87
e 85 88
e 85 90
e 85 91
e 85 92
e 85 93
e 85 97
e 85 99
e 85 100
e 85 103
e 85 104
e 85 105
e 85 106
e 85 110
e 85 112
e 85 113
e 85 116
e 85 117
e 85 119
e 85 121
e 85 122
e 85 123
e 86 87
e 86 88
e 86 91
e 86 93
e 86 96
e 86 98
e 86 99
e 86 100
e 86 105
e 86 109
e 86 111
e 86 112
e 86 113
e 86 114
e 86 115
e 86 118
e 86 120
e 86 121
e 87 88
e 87 90
e 87 93
e 87 95
e 87 98
e 87 99
e 87 101
e 87 104
e 87 106
e 87 108
e 87 113
e 87 114
e 87 115
e 87 118
e 87 121
e 87 125
e 88 89
e 88 91
e 88 92
e 88 95
e 88 97
e 88 99
e 88 101
e 88 103
e 88 105
e 88 106
e 88 110
e 88 112
e 88 113
e 88 114
e 88 116
e 88 119
e 88 120
e 88 121
e 88 123
e 88 124
e 88 125
e 89 90
e 89 91
e 89 93
e 89 97
e 89 98
e 89 99
e 89 106
e 89 108
e 89 109
e 89 111
e 89 113
e 89 114
e 89 118
e 89 119
e 89 120
e 89 121
e 89 122
e 89 124
e 89 125
e 90 94
e 90 95
e 90 97
e 90 100
e 90 101
e 90 102
e 90 103
e 90 104
e 90 107
e 90 109
e 90 110
e 90 112
e 90 119
e 90 124
e 91 96
e 91 97
e 91 98
e 91 99
e 91 102
e 91 103
e 91 104
e 91 107
e 91 110
e 91 113
e 91 114
e 91 118
e 91 119
e 91 120
e 91 123
e 91 124
e 92 94
e 92 95
e 92 96
e 92 98
e 92 102
e 92 104
e 92 105
e 92 107
e 92 111
e 92 114
e 92 115
e 92 116
e 92 118
e 92 120
e 92 121
e 92 123
e 92 124
e 93 96
e 93 99
e 93 101
e 93 103
e 93 107
e 93 111
e 93 112
e 93 113
e 93 115
e 93 117
e 93 119
e 93 120
e 93 121
e 94 95
e 94 97
e 94 99
e 94 101
e 94 103
e 94 105
e 94 107
e 94 109
e 94 110
e 94 113
e 94 114
e 94 115
e 94 116
e 94 117
e 94 118
e 94 119
e 94 120
e 94 123
e 95 96
e 95 98
e 95 99
e 95 100
e 95 101
e 95 104
e 95 108
e 95 110
e 95 111
e 95 115
e 95 116
e 95 117
e 95 118
e 95 120
e 95 125
e 96 97
e 96 99
e 96 101
e 96 103
e 96 105
e 96 106
e 96 109
e 96 114
e 96 116
e 96 117
e 96 118
e 96 119
e 96 121
e 97 98
e 97 99
e 97 100
e 97 101
e 97 102
e 97 103
e 97 104
e 97 106
e 97 108
e 97 109
e 97 110
e 97 112
e 97 113
e 97 114
e 97 118
e 97 120
e 97 121
e 98 99
e 98 100
e 98 102
e 98 103
e 98 106
e 98 107
e 98 108
e 98 109
e 98 112
e 98 114
e 98 115
e 98 118
e 98 122
e 98 125
e 99 101
e 99 106
e 99 107
e 99 108
e 99 110
e 99 111
e 99 112
e 99 116
e 99 120
e 99 123
e 99 124
e 100 104
e 100 105
e 100 106
e 100 107
e 100 109
e 100 110
e 100 111
e 100 113
e 100 114
e 100 115
e 100 118
e 101 103
e 101 104
e 101 107
e 101 110
e 101 118
e 101 121
e 101 122
e 101 123
e 101 124
e 101 125
e 102 103
e 102 104
e 102 106
e 102 107
e 102 113
e 102 115
e 102 116
e 102 117
e 102 119
e 102 120
e 102 122
e 103 104
e 103 105
e 103 107
e 103 109
e 103 110
e 103 112
e 103 118
e 103 119
e 103 121
e 103 124
e 104 105
e 104 107
e 104 108
e 104 110
e 104 112
e 104 116
e 104 117
e 104 118
e 104 119
e 104 120
e 104 121
e 104 123
e 104 125
e 105 108
e 105 112
e 105 114
e 105 116
e 105 119
e 105 120
e 105 124
e 105 125
e 106 107
e 106 108
e 106 111
e 106 112
e 106 115
e 106 117
e 106 118
e 106 120
e 106 121
e 106 122
e 106 123
e 106 124
e 106 125
e 107 109
e 107 112
e 107 113
e 107 114
e 107 115
e 107 116
e 107 117
e 107 118
e 107 119
e 107 120
e 107 124
e 107 125
e 108 110
e 108 113
e 108 114
e 108 117
e 108 118
e 108 120
e 108 121
e 108 122
e 108 123
e 109 112
e 109 114
e 109 117
e 109 118
e 109 120
e 109 122
e 109 125
e 110 116
e 110 117
e 110 119
e 110 120
e 110 121
e 110 122
e 110 124
e 110 125
e 111 112
e 111 113
e 111 114
e 111 117
e 111 121
e 111 124
e 112 115
e 112 117
e 112 119
e 112 122
e 112 123
e 113 115
e 113 116
e 113 117
e 113 120
e 113 121
e 113 123
e 114 116
e 114 117
e 114 118
e 114 119
e 114 120
e 114 121
e 114 124
e 115 116
e 115 119
e 115 123
e 116 117
e 116 119
e 116 123
e 117 120
e 117 122
e 117 124
e 118 119
e 118 121
e 118 122
e 119 123
e 119 124
e 119 125
e 120 123
e 121 123
e 121 124
e 122 123
e 122 125
e 123 125
